(set-info :source |printed by MathSAT|)
(declare-fun |!{$(in_main#0)<N>}| () Int)
(declare-fun |!{$(in_main#0)<N>}.next| () Int)
(declare-fun |!{$(in_main#0)<argmin>}| () Int)
(declare-fun |!{$(in_main#0)<argmin>}.next| () Int)
(declare-fun |!{$(in_main#0)<&array>}| () Int)
(declare-fun |!{$(in_main#0)<&array>}.next| () Int)
(declare-fun |!{$(in_main#0)<k>}| () Int)
(declare-fun |!{$(in_main#0)<k>}.next| () Int)
(declare-fun |!{$(in_main#0)<k#1>}| () Int)
(declare-fun |!{$(in_main#0)<k#1>}.next| () Int)
(declare-fun |!{%memaddr}| () Int)
(declare-fun |!{%memaddr}.next| () Int)
(declare-fun |!{%mem.0}| () (Array Int Int))
(declare-fun |!{%mem.0}.next| () (Array Int Int))
(declare-fun |!{$(in_main#0)<$(in___VERIFIER_nondet_int#1)<h#<__VERIFIER_nondet_int.return>>>}| () Int)
(declare-fun |!{$(in_main#0)<$(in___VERIFIER_nondet_int#3)<h#<__VERIFIER_nondet_int.return>>>}| () Int)
(declare-fun |!{$(in_main#0)<$(in_rec_array_argmin#4)<$temp.1>>}| () Int)
(declare-fun |!{$(in_main#0)<$(in_rec_array_argmin#4)<argmin>>}| () Int)
(declare-fun |!{$(in_main#0)<$(in_rec_array_argmin#4)<$tmp>>}| () Int)
(declare-fun |!{$(in_main#0)<$(in_rec_array_argmin#4)<$(in_rec_array_argmin#0)<$temp.1>>>}| () Int)
(declare-fun |!{$(in_main#0)<$(in_rec_array_argmin#4)<$(in_rec_array_argmin#0)<argmin>>>}| () Int)
(declare-fun |!{$(in_main#0)<$(in_rec_array_argmin#4)<$(in_rec_array_argmin#0)<$tmp>>>}| () Int)
(declare-fun !pc () Int)
(declare-fun !pc.next () Int)
(declare-fun |%{$(in_main#0)<argmin>}#1| () Int)
(declare-fun |%{$(in_main#0)<k#1>}#1| () Int)
(declare-fun rec_array_argmin<0> (Int Int Int) Int)
(declare-fun |%{$(in_main#0)<$(in_rec_array_argmin#4)<$(in_rec_array_argmin#0)<$temp.1>>>}#3| () Int)
(declare-fun |%{$(in_main#0)<$(in_rec_array_argmin#4)<$(in_rec_array_argmin#0)<argmin>>>}#3| () Int)
(declare-fun |%{$(in_main#0)<$(in_rec_array_argmin#4)<$(in_rec_array_argmin#0)<$tmp>>>}#3| () Int)
(declare-fun |%{$(in_main#0)<$(in_rec_array_argmin#4)<$(in_rec_array_argmin#0)<rec_array_argmin.return>>>}#3| () Int)
(declare-fun |%{$(in_main#0)<$(in_rec_array_argmin#4)<$temp.1>>}#3| () Int)
(declare-fun |%{$(in_main#0)<$(in_rec_array_argmin#4)<argmin>>}#3| () Int)
(declare-fun |%{$(in_main#0)<$(in_rec_array_argmin#4)<$tmp>>}#3| () Int)
(declare-fun |%{$(in_main#0)<$(in_rec_array_argmin#4)<rec_array_argmin.return>>}#3| () Int)
(define-fun .def_56 () Int (! !pc :next !pc.next))
(define-fun .def_59 () Bool (! (= .def_56 2) :init true))
(define-fun .def_277 () Bool (= .def_56 49))
(define-fun .def_146 () Bool (= !pc.next 149))
(define-fun .def_280 () Bool (and .def_146 .def_277))
(define-fun .def_271 () Bool (= |!{$(in_main#0)<k#1>}.next| 0))
(define-fun .def_267 () Bool (= |!{$(in_main#0)<argmin>}.next| |%{$(in_main#0)<$(in_rec_array_argmin#4)<rec_array_argmin.return>>}#3|))
(define-fun .def_8 () Int (! |!{$(in_main#0)<N>}| :next |!{$(in_main#0)<N>}.next|))
(define-fun .def_107 () Bool (= .def_8 |!{$(in_main#0)<N>}.next|))
(define-fun .def_268 () Bool (and .def_107 .def_267))
(define-fun .def_12 () Int (! |!{$(in_main#0)<&array>}| :next |!{$(in_main#0)<&array>}.next|))
(define-fun .def_111 () Bool (= .def_12 |!{$(in_main#0)<&array>}.next|))
(define-fun .def_269 () Bool (and .def_111 .def_268))
(define-fun .def_14 () Int (! |!{$(in_main#0)<k>}| :next |!{$(in_main#0)<k>}.next|))
(define-fun .def_113 () Bool (= .def_14 |!{$(in_main#0)<k>}.next|))
(define-fun .def_270 () Bool (and .def_113 .def_269))
(define-fun .def_272 () Bool (and .def_270 .def_271))
(define-fun .def_18 () Int (! |!{%memaddr}| :next |!{%memaddr}.next|))
(define-fun .def_117 () Bool (= .def_18 |!{%memaddr}.next|))
(define-fun .def_273 () Bool (and .def_117 .def_272))
(define-fun .def_20 () (Array Int Int) (! |!{%mem.0}| :next |!{%mem.0}.next|))
(define-fun .def_87 () Bool (= .def_20 |!{%mem.0}.next|))
(define-fun .def_274 () Bool (and .def_87 .def_273))
(define-fun .def_253 () Bool (= |%{$(in_main#0)<$(in_rec_array_argmin#4)<$(in_rec_array_argmin#0)<rec_array_argmin.return>>>}#3| |%{$(in_main#0)<$(in_rec_array_argmin#4)<rec_array_argmin.return>>}#3|))
(define-fun .def_216 () Int (+ .def_12 |%{$(in_main#0)<$(in_rec_array_argmin#4)<$(in_rec_array_argmin#0)<rec_array_argmin.return>>>}#3|))
(define-fun .def_217 () Int (select .def_20 .def_216))
(define-fun .def_215 () Int (select .def_20 .def_12))
(define-fun .def_218 () Bool (<= .def_215 .def_217))
(define-fun .def_243 () Bool (not .def_218))
(define-fun .def_167 () Int (rec_array_argmin<0> .def_12 2 .def_8))
(define-fun .def_206 () Bool (= .def_167 |%{$(in_main#0)<$(in_rec_array_argmin#4)<$(in_rec_array_argmin#0)<rec_array_argmin.return>>>}#3|))
(define-fun .def_170 () Int (+ .def_12 .def_167))
(define-fun .def_171 () Int (select .def_20 .def_170))
(define-fun .def_168 () Int (+ .def_12 1))
(define-fun .def_169 () Int (select .def_20 .def_168))
(define-fun .def_172 () Bool (<= .def_169 .def_171))
(define-fun .def_199 () Bool (not .def_172))
(define-fun .def_165 () Bool (= .def_8 2))
(define-fun .def_166 () Bool (not .def_165))
(define-fun .def_200 () Bool (and .def_166 .def_199))
(define-fun .def_208 () Bool (and .def_200 .def_206))
(define-fun .def_181 () Bool (= .def_167 |%{$(in_main#0)<$(in_rec_array_argmin#4)<$(in_rec_array_argmin#0)<$temp.1>>>}#3|))
(define-fun .def_209 () Bool (and .def_181 .def_208))
(define-fun .def_187 () Bool (= .def_167 |%{$(in_main#0)<$(in_rec_array_argmin#4)<$(in_rec_array_argmin#0)<argmin>>>}#3|))
(define-fun .def_210 () Bool (and .def_187 .def_209))
(define-fun .def_193 () Bool (= .def_167 |%{$(in_main#0)<$(in_rec_array_argmin#4)<$(in_rec_array_argmin#0)<$tmp>>>}#3|))
(define-fun .def_211 () Bool (and .def_193 .def_210))
(define-fun .def_205 () Bool (= |%{$(in_main#0)<$(in_rec_array_argmin#4)<$(in_rec_array_argmin#0)<rec_array_argmin.return>>>}#3| 1))
(define-fun .def_175 () Bool (and .def_166 .def_172))
(define-fun .def_183 () Bool (and .def_175 .def_181))
(define-fun .def_189 () Bool (and .def_183 .def_187))
(define-fun .def_195 () Bool (and .def_189 .def_193))
(define-fun .def_192 () Bool (= |!{$(in_main#0)<$(in_rec_array_argmin#4)<$(in_rec_array_argmin#0)<$tmp>>>}| |%{$(in_main#0)<$(in_rec_array_argmin#4)<$(in_rec_array_argmin#0)<$tmp>>>}#3|))
(define-fun .def_186 () Bool (= |!{$(in_main#0)<$(in_rec_array_argmin#4)<$(in_rec_array_argmin#0)<argmin>>>}| |%{$(in_main#0)<$(in_rec_array_argmin#4)<$(in_rec_array_argmin#0)<argmin>>>}#3|))
(define-fun .def_180 () Bool (= |!{$(in_main#0)<$(in_rec_array_argmin#4)<$(in_rec_array_argmin#0)<$temp.1>>>}| |%{$(in_main#0)<$(in_rec_array_argmin#4)<$(in_rec_array_argmin#0)<$temp.1>>>}#3|))
(define-fun .def_182 () Bool (and .def_165 .def_180))
(define-fun .def_188 () Bool (and .def_182 .def_186))
(define-fun .def_194 () Bool (and .def_188 .def_192))
(define-fun .def_196 () Bool (or .def_194 .def_195))
(define-fun .def_207 () Bool (and .def_196 .def_205))
(define-fun .def_212 () Bool (or .def_207 .def_211))
(define-fun .def_244 () Bool (and .def_212 .def_243))
(define-fun .def_163 () Bool (= .def_8 1))
(define-fun .def_164 () Bool (not .def_163))
(define-fun .def_245 () Bool (and .def_164 .def_244))
(define-fun .def_226 () Bool (= |%{$(in_main#0)<$(in_rec_array_argmin#4)<$(in_rec_array_argmin#0)<rec_array_argmin.return>>>}#3| |%{$(in_main#0)<$(in_rec_array_argmin#4)<$temp.1>>}#3|))
(define-fun .def_247 () Bool (and .def_226 .def_245))
(define-fun .def_232 () Bool (= |%{$(in_main#0)<$(in_rec_array_argmin#4)<$(in_rec_array_argmin#0)<rec_array_argmin.return>>>}#3| |%{$(in_main#0)<$(in_rec_array_argmin#4)<argmin>>}#3|))
(define-fun .def_248 () Bool (and .def_232 .def_247))
(define-fun .def_238 () Bool (= |%{$(in_main#0)<$(in_rec_array_argmin#4)<$(in_rec_array_argmin#0)<rec_array_argmin.return>>>}#3| |%{$(in_main#0)<$(in_rec_array_argmin#4)<$tmp>>}#3|))
(define-fun .def_249 () Bool (and .def_238 .def_248))
(define-fun .def_255 () Bool (and .def_249 .def_253))
(define-fun .def_252 () Bool (= |%{$(in_main#0)<$(in_rec_array_argmin#4)<rec_array_argmin.return>>}#3| 0))
(define-fun .def_220 () Bool (and .def_212 .def_218))
(define-fun .def_221 () Bool (and .def_164 .def_220))
(define-fun .def_228 () Bool (and .def_221 .def_226))
(define-fun .def_234 () Bool (and .def_228 .def_232))
(define-fun .def_240 () Bool (and .def_234 .def_238))
(define-fun .def_237 () Bool (= |!{$(in_main#0)<$(in_rec_array_argmin#4)<$tmp>>}| |%{$(in_main#0)<$(in_rec_array_argmin#4)<$tmp>>}#3|))
(define-fun .def_231 () Bool (= |!{$(in_main#0)<$(in_rec_array_argmin#4)<argmin>>}| |%{$(in_main#0)<$(in_rec_array_argmin#4)<argmin>>}#3|))
(define-fun .def_225 () Bool (= |!{$(in_main#0)<$(in_rec_array_argmin#4)<$temp.1>>}| |%{$(in_main#0)<$(in_rec_array_argmin#4)<$temp.1>>}#3|))
(define-fun .def_227 () Bool (and .def_163 .def_225))
(define-fun .def_233 () Bool (and .def_227 .def_231))
(define-fun .def_239 () Bool (and .def_233 .def_237))
(define-fun .def_241 () Bool (or .def_239 .def_240))
(define-fun .def_254 () Bool (and .def_241 .def_252))
(define-fun .def_256 () Bool (or .def_254 .def_255))
(define-fun .def_275 () Bool (and .def_256 .def_274))
(define-fun .def_157 () Bool (<= .def_8 .def_14))
(define-fun .def_276 () Bool (and .def_157 .def_275))
(define-fun .def_281 () Bool (and .def_276 .def_280))
(define-fun .def_91 () Bool (= !pc.next 49))
(define-fun .def_278 () Bool (and .def_91 .def_277))
(define-fun .def_159 () Int (+ .def_12 .def_14))
(define-fun .def_160 () (Array Int Int) (store .def_20 .def_159 |!{$(in_main#0)<$(in___VERIFIER_nondet_int#3)<h#<__VERIFIER_nondet_int.return>>>}|))
(define-fun .def_264 () Bool (= |!{%mem.0}.next| .def_160))
(define-fun .def_258 () Int (* (- 1) |!{$(in_main#0)<k>}.next|))
(define-fun .def_259 () Int (+ .def_14 .def_258))
(define-fun .def_260 () Bool (= .def_259 (- 1)))
(define-fun .def_10 () Int (! |!{$(in_main#0)<argmin>}| :next |!{$(in_main#0)<argmin>}.next|))
(define-fun .def_109 () Bool (= .def_10 |!{$(in_main#0)<argmin>}.next|))
(define-fun .def_121 () Bool (and .def_107 .def_109))
(define-fun .def_122 () Bool (and .def_111 .def_121))
(define-fun .def_261 () Bool (and .def_122 .def_260))
(define-fun .def_16 () Int (! |!{$(in_main#0)<k#1>}| :next |!{$(in_main#0)<k#1>}.next|))
(define-fun .def_115 () Bool (= .def_16 |!{$(in_main#0)<k#1>}.next|))
(define-fun .def_262 () Bool (and .def_115 .def_261))
(define-fun .def_263 () Bool (and .def_117 .def_262))
(define-fun .def_265 () Bool (and .def_263 .def_264))
(define-fun .def_158 () Bool (not .def_157))
(define-fun .def_266 () Bool (and .def_158 .def_265))
(define-fun .def_279 () Bool (and .def_266 .def_278))
(define-fun .def_282 () Bool (or .def_279 .def_281))
(define-fun .def_150 () Bool (= !pc.next 0))
(define-fun .def_141 () Bool (= .def_56 149))
(define-fun .def_151 () Bool (and .def_141 .def_150))
(define-fun .def_94 () Bool (<= .def_8 .def_16))
(define-fun .def_133 () Bool (and .def_94 .def_107))
(define-fun .def_134 () Bool (and .def_109 .def_133))
(define-fun .def_135 () Bool (and .def_111 .def_134))
(define-fun .def_136 () Bool (and .def_113 .def_135))
(define-fun .def_137 () Bool (and .def_115 .def_136))
(define-fun .def_138 () Bool (and .def_117 .def_137))
(define-fun .def_139 () Bool (and .def_87 .def_138))
(define-fun .def_152 () Bool (and .def_139 .def_151))
(define-fun .def_147 () Bool (and .def_141 .def_146))
(define-fun .def_125 () Int (* (- 1) |!{$(in_main#0)<k#1>}.next|))
(define-fun .def_126 () Int (+ .def_16 .def_125))
(define-fun .def_127 () Bool (= .def_126 (- 1)))
(define-fun .def_123 () Bool (and .def_113 .def_122))
(define-fun .def_128 () Bool (and .def_123 .def_127))
(define-fun .def_129 () Bool (and .def_117 .def_128))
(define-fun .def_130 () Bool (and .def_87 .def_129))
(define-fun .def_96 () Int (+ .def_12 .def_16))
(define-fun .def_97 () Int (select .def_20 .def_96))
(define-fun .def_98 () Int (+ .def_10 .def_12))
(define-fun .def_99 () Int (select .def_20 .def_98))
(define-fun .def_100 () Bool (<= .def_99 .def_97))
(define-fun .def_101 () Int (ite .def_100 1 0))
(define-fun .def_102 () Bool (= .def_101 0))
(define-fun .def_103 () Bool (not .def_102))
(define-fun .def_131 () Bool (and .def_103 .def_130))
(define-fun .def_95 () Bool (not .def_94))
(define-fun .def_132 () Bool (and .def_95 .def_131))
(define-fun .def_148 () Bool (and .def_132 .def_147))
(define-fun .def_143 () Bool (= !pc.next 169))
(define-fun .def_144 () Bool (and .def_141 .def_143))
(define-fun .def_108 () Bool (and .def_102 .def_107))
(define-fun .def_110 () Bool (and .def_108 .def_109))
(define-fun .def_112 () Bool (and .def_110 .def_111))
(define-fun .def_114 () Bool (and .def_112 .def_113))
(define-fun .def_116 () Bool (and .def_114 .def_115))
(define-fun .def_118 () Bool (and .def_116 .def_117))
(define-fun .def_119 () Bool (and .def_87 .def_118))
(define-fun .def_120 () Bool (and .def_95 .def_119))
(define-fun .def_145 () Bool (and .def_120 .def_144))
(define-fun .def_149 () Bool (or .def_145 .def_148))
(define-fun .def_153 () Bool (or .def_149 .def_152))
(define-fun .def_92 () Bool (and .def_59 .def_91))
(define-fun .def_85 () Bool (= |!{%memaddr}.next| 2))
(define-fun .def_83 () Bool (= |!{$(in_main#0)<k#1>}.next| |%{$(in_main#0)<k#1>}#1|))
(define-fun .def_81 () Bool (= |!{$(in_main#0)<k>}.next| 0))
(define-fun .def_79 () Bool (= |!{$(in_main#0)<&array>}.next| 1))
(define-fun .def_77 () Bool (= |!{$(in_main#0)<argmin>}.next| |%{$(in_main#0)<argmin>}#1|))
(define-fun .def_76 () Bool (= |!{$(in_main#0)<N>}.next| |!{$(in_main#0)<$(in___VERIFIER_nondet_int#1)<h#<__VERIFIER_nondet_int.return>>>}|))
(define-fun .def_78 () Bool (and .def_76 .def_77))
(define-fun .def_80 () Bool (and .def_78 .def_79))
(define-fun .def_82 () Bool (and .def_80 .def_81))
(define-fun .def_84 () Bool (and .def_82 .def_83))
(define-fun .def_86 () Bool (and .def_84 .def_85))
(define-fun .def_88 () Bool (and .def_86 .def_87))
(define-fun .def_71 () Bool (<= |!{$(in_main#0)<$(in___VERIFIER_nondet_int#1)<h#<__VERIFIER_nondet_int.return>>>}| 0))
(define-fun .def_72 () Bool (not .def_71))
(define-fun .def_73 () Int (ite .def_72 1 0))
(define-fun .def_74 () Bool (= .def_73 0))
(define-fun .def_75 () Bool (not .def_74))
(define-fun .def_89 () Bool (and .def_75 .def_88))
(define-fun .def_93 () Bool (and .def_89 .def_92))
(define-fun .def_154 () Bool (or .def_93 .def_153))
(define-fun .def_283 () Bool (! (or .def_154 .def_282) :trans true))
(define-fun .def_155 () Bool (= .def_56 169))
(define-fun .def_284 () Bool (! (not .def_155) :invar-property 0 :invar-property-name ||))
(assert true)
